\ENCODING=ISO-8859-1
\Problem name: 

Minimize
 obj: 9 xa1 + 0 x20
Subject To
 c1:  xa1 + x2 + x3 <= 7000
 c2:  x4 + x5 + x6 <= 6000
 c3:  x7 + x8 + x9 <= 4000
 c4:  xa1 + x4 + x7 >= 8000
 c5:  x2 + x5 + x8 >= 5000
 c6:  x3 + x6 + x9 >= 4000
 c7:  xa1 - 8000 x10 <= 0
 c8:  x2 - 8000 x11 <= 0
 c9:  x3 - 8000 x12 <= 0
 c10: x4 - 8000 x13 <= 0
 c11: x5 - 8000 x14 <= 0
 c12: x6 - 8000 x15 <= 0
 c13: x7 - 8000 x16 <= 0
 c14: x8 - 8000 x17 <= 0
 c15: x9 - 8000 x18 <= 0
 c16: xa1 <= 1000
 c17: x2 <= 1000
 c18: x3 <= 1000
 c19: x4 <= 1000
 c20: x5 <= 1000
 c21: x6 <= 1000
 c22: x7 <= 1000
 c23: x8 <= 1000
 c24: x9 <= 1000
 c25: x10 + x11 + x12 + x13 + x14 + x15 + x16 + x17 + x18 <= 5
 c26: x10 + x11 + x12 + x13 + x14 + x15 + x16 + x17 + x18 - 5 x19 <= 4
End
